unsat
(a11_8$2@ a11_8$0@ a11_5$0@ a11_1$2@ a11_1$1@ a10_8$2@ a10_5$2@ a10_2$2@ a4_9$0@ obs-10-6 obs-10-3 obs-9-7 obs-8-4 obs-8-3 obs-7-9 obs-7-3 obs-7-2 obs-7-1 obs-6-10 obs-6-7 obs-5-3 obs-4-3 obs-4-1 obs-1-8 obs-2-8)
(error "line 410122 column 10: model is not available")
